4624 8376 557
5665 7335 587
3973 7027 596
5519 5481 609
5122 6878 599
6299 7701 532
6430 7570 441
7383 5617 422
7325 4675 493
5428 8572 456
4165 8835 465
6558 6442 585
7440 4560 376
6792 7208 513
4342 7658 580
